instances/knapsack/discrete/knapsack_140_18.kp
40344
140
655

27 2.7 89
79 7.9 6
53 5.3 7
98 9.8 27
71 7.1 33
9 0.9 36
40 4.0 61
15 1.5 71
8 0.8 38
49 4.9 58
79 7.9 66
74 7.4 46
31 3.1 90
95 9.5 25
72 7.2 94
100 10.0 39
72 7.2 85
99 9.9 33
56 5.6 2
33 3.3 49
44 4.4 25
19 1.9 66
19 1.9 87
50 5.0 11
20 2.0 36
59 5.9 86
29 2.9 31
71 7.1 59
81 8.1 57
2 0.2 84
1 0.1 92
63 6.3 55
67 6.7 91
44 4.4 78
75 7.5 63
56 5.6 100
7 0.7 44
24 2.4 78
55 5.5 58
78 7.8 75
34 3.4 27
93 9.3 93
65 6.5 41
1 0.1 90
38 3.8 94
66 6.6 54
89 8.9 24
45 4.5 8
2 0.2 88
67 6.7 81
26 2.6 42
23 2.3 58
24 2.4 38
59 5.9 32
8 0.8 43
43 4.3 45
92 9.2 42
38 3.8 59
27 2.7 79
85 8.5 62
52 5.2 3
14 1.4 25
99 9.9 85
22 2.2 5
63 6.3 26
7 0.7 64
44 4.4 60
94 9.4 57
59 5.9 72
25 2.5 57
93 9.3 28
41 4.1 30
5 0.5 64
70 7.0 13
3 0.3 50
48 4.8 61
54 5.4 33
50 5.0 68
64 6.4 23
22 2.2 51
81 8.1 50
33 3.3 25
58 5.8 13
45 4.5 45
41 4.1 68
93 9.3 44
23 2.3 33
79 7.9 62
89 8.9 35
14 1.4 2
60 6.0 13
52 5.2 45
44 4.4 69
63 6.3 60
3 0.3 3
36 3.6 46
12 1.2 84
96 9.6 91
39 3.9 12
35 3.5 64
84 8.4 40
43 4.3 17
33 3.3 70
3 0.3 65
32 3.2 50
29 2.9 38
98 9.8 69
94 9.4 68
22 2.2 93
4 0.4 88
74 7.4 57
82 8.2 13
36 3.6 29
44 4.4 75
44 4.4 49
38 3.8 32
50 5.0 90
32 3.2 88
96 9.6 97
100 10.0 74
63 6.3 17
52 5.2 86
75 7.5 53
34 3.4 78
24 2.4 63
62 6.2 88
15 1.5 80
47 4.7 93
18 1.8 27
50 5.0 84
89 8.9 42
68 6.8 2
38 3.8 15
3 0.3 74
12 1.2 29
61 6.1 11
68 6.8 36
82 8.2 57
73 7.3 18
35 3.5 45

37148
648

[2.83 2.07 4.61 3.99 3.56 1.15 1.04 1.09 2.58 0.01 0.04 3.91 0.98 3.74 0.96 1.12 1.26 1.11 3.51 0.57 3.63 2.47 4.11 3.65 2.51 2.52 0.28 0.06 4.27 0.37 1.05 3.48 4.16 0.67 2.97 3.1 4.59 0.61 1.07 0.73 3.76 3.26 1.71 1.62 0.28 0.73 3.52 3.64 2.06 3.35 0.89 4.61 2.28 1.78 3.36 3.32 3.56 1.66 1.46 4.05 0.84 3.62 0.5 4.32 0.14 0.0 0.88 2.67 1.26 3.8 2.83 1.2 0.99 4.53 1.73 0.33 0.56 0.04 1.98 0.88 2.77 2.29 2.61 2.92 4.23 4.24 0.22 0.66 4.55 3.87 1.7 1.3 1.18 0.5 2.96 1.09 4.36 4.25 0.82 4.23 1.82 1.82 2.27 0.57 3.34 1.84 1.75 2.08 2.46 3.28 3.79 3.43 0.79 3.95 1.97 0.02 3.76 3.07 0.95 0.31 1.74 1.75 1.91 3.7 2.16 4.6 3.29 1.23 3.51 0.45 0.92 0.13 3.41 3.39 2.36 3.66 3.27 2.63 4.25 3.24]

[1 37 59 68 49 23 30 37 98 91 53 64 73 21 22 78 82 1 46 51 66 21 21 60 66 25 31 65 51 52 7 93 29 18 29 74 21 74 69 12 24 71 99 11 12 44 91 75 48 53 68 5 82 33 54 69 10 36 45 75 94 96 9 12 9 85 14 32 93 15 11 59 39 24 49 18 100 44 10 80 79 11 44 83 43 67 1 9 7 80 74 98 74 93 37 90 14 62 29 93 14 13 87 41 78 59 44 60 36 38 60 96 62 82 42 8 84 98 6 86 45 26 37 76 54 88 57 73 36 12 27 58 44 29 26 35 86 28 15 5]
