instances/knapsack/discrete_knapsack_uncertainty/knapsack_140_18.lp
\ Model knapsack_140_18
\ LP format - for model browsing. Use MPS format to capture full model detail.
\ Signature: 0x9977cb8fbdb63468
Minimize
  - 88 x[0] - 45 x[1] - 30 x[2] - 98 x[3] - 100 x[4] - 83 x[5] - 40 x[6]
   - 2 x[7] - 69 x[8] - 25 x[9] - 29 x[10] - 57 x[11] - 33 x[12] - 4 x[13]
   - 41 x[14] - 98 x[15] - 48 x[16] - 96 x[17] - 17 x[18] - 12 x[19]
   - 72 x[20] - 61 x[21] - 98 x[22] - 10 x[23] - 67 x[24] - 49 x[25]
   - 94 x[26] - 78 x[27] - 96 x[28] - 39 x[29] - 67 x[30] - 78 x[31]
   - 26 x[32] - 37 x[33] - 58 x[34] - 67 x[35] - 43 x[36] - 13 x[37]
   - 65 x[38] - 74 x[39] - 38 x[40] - 16 x[41] - 44 x[42] - 9 x[43]
   - 89 x[44] - 49 x[45] - 7 x[46] - 11 x[47] - 19 x[48] - 44 x[49]
   - 93 x[50] - 45 x[51] - 29 x[52] - 47 x[53] - 66 x[54] - 88 x[55]
   - 93 x[56] - 42 x[57] - 58 x[58] - 21 x[59] - 2 x[60] - 20 x[61]
   - 32 x[62] - 84 x[63] - 69 x[64] - 55 x[65] - 27 x[66] - 76 x[67]
   - 11 x[68] - 56 x[69] - 35 x[70] - 97 x[71] - 79 x[72] - 52 x[73]
   - 45 x[74] - 44 x[75] - 32 x[76] - 39 x[77] - 2 x[78] - 50 x[79]
   - 9 x[80] - 60 x[81] - 24 x[82] - 60 x[83] - 63 x[84] - 19 x[85]
   - 76 x[86] - 41 x[87] - 46 x[88] - 17 x[89] - 28 x[90] - 28 x[91]
   - 80 x[92] - 71 x[93] - 78 x[94] - 93 x[95] - 75 x[96] - 18 x[97]
   - 51 x[98] - 47 x[99] - 27 x[100] - 96 x[101] - x[102] - 4 x[103]
   - 61 x[104] - 41 x[105] - 88 x[106] - 35 x[107] - 96 x[108] - 11 x[109]
   - 4 x[110] - 84 x[111] - 100 x[112] - 54 x[113] - 32 x[114] - 55 x[115]
   - 17 x[116] - 51 x[117] - 68 x[118] - 61 x[119] - 44 x[120] - 45 x[121]
   - 8 x[122] - 97 x[123] - 22 x[124] - 63 x[125] - 15 x[126] - 36 x[127]
   - 6 x[128] - 67 x[129] - 81 x[130] - 61 x[131] - 62 x[132] - 89 x[133]
   - 60 x[134] - 62 x[135] - 31 x[136] - 48 x[137] - 57 x[138] - 16 x[139]
Subject To
 primal_upper: 34 x[0] + 18 x[1] + 60 x[2] + 37 x[3] + 66 x[4] + 52 x[5]
   + 67 x[6] + 38 x[7] + 75 x[8] + 84 x[9] + 10 x[10] + 65 x[11] + 98 x[12]
   + 14 x[13] + 31 x[14] + 7 x[15] + 79 x[16] + 18 x[17] + 7 x[18]
   + 68 x[19] + 55 x[20] + 10 x[21] + 50 x[22] + 21 x[23] + 15 x[24]
   + 62 x[25] + 88 x[26] + 90 x[27] + 52 x[28] + 53 x[29] + 64 x[30]
   + 6 x[31] + 58 x[32] + 87 x[33] + 70 x[34] + 35 x[35] + 22 x[36]
   + 99 x[37] + 18 x[38] + 17 x[39] + 49 x[40] + 48 x[41] + 44 x[42]
   + 32 x[43] + 77 x[44] + 21 x[45] + 52 x[46] + 44 x[47] + 41 x[48]
   + 46 x[49] + 93 x[50] + 6 x[51] + 87 x[52] + 38 x[53] + 75 x[54]
   + 14 x[55] + 63 x[56] + 97 x[57] + 54 x[58] + 72 x[59] + 7 x[60]
   + 85 x[61] + 46 x[62] + 41 x[63] + 26 x[64] + 30 x[65] + 95 x[66]
   + 69 x[67] + 94 x[68] + 40 x[69] + 40 x[70] + 64 x[71] + 24 x[72]
   + 45 x[73] + 66 x[74] + 99 x[75] + 53 x[76] + 25 x[77] + 99 x[78]
   + 97 x[79] + 32 x[80] + 12 x[81] + 49 x[82] + 64 x[83] + 32 x[84]
   + 44 x[85] + 74 x[86] + 94 x[87] + 64 x[88] + x[89] + 31 x[90] + 7 x[91]
   + 47 x[92] + 50 x[93] + 66 x[94] + 55 x[95] + 19 x[96] + 75 x[97]
   + 38 x[98] + 70 x[99] + 63 x[100] + 18 x[101] + 92 x[102] + 54 x[103]
   + 99 x[104] + 68 x[105] + 9 x[106] + 89 x[107] + 89 x[108] + 83 x[109]
   + 65 x[110] + 5 x[111] + 3 x[112] + 15 x[113] + 15 x[114] + 37 x[115]
   + 69 x[116] + 19 x[117] + 3 x[118] + 27 x[119] + 54 x[120] + 63 x[121]
   + 38 x[122] + 53 x[123] + 7 x[124] + 85 x[125] + 6 x[126] + 90 x[127]
   + 85 x[128] + 53 x[129] + 32 x[130] + 83 x[131] + 65 x[132] + 70 x[133]
   + 43 x[134] + 76 x[135] + 35 x[136] + 21 x[137] + 28 x[138] + 42 x[139]
   + 3.4 r[0] + 1.8 r[1] + 6 r[2] + 3.7 r[3] + 6.6 r[4] + 5.2 r[5]
   + 6.7 r[6] + 3.8 r[7] + 7.5 r[8] + 8.4 r[9] + r[10] + 6.5 r[11]
   + 9.8 r[12] + 1.4 r[13] + 3.1 r[14] + 0.7 r[15] + 7.9 r[16] + 1.8 r[17]
   + 0.7 r[18] + 6.8 r[19] + 5.5 r[20] + r[21] + 5 r[22] + 2.1 r[23]
   + 1.5 r[24] + 6.2 r[25] + 8.8 r[26] + 9 r[27] + 5.2 r[28] + 5.3 r[29]
   + 6.4 r[30] + 0.6 r[31] + 5.8 r[32] + 8.7 r[33] + 7 r[34] + 3.5 r[35]
   + 2.2 r[36] + 9.9 r[37] + 1.8 r[38] + 1.7 r[39] + 4.9 r[40] + 4.8 r[41]
   + 4.4 r[42] + 3.2 r[43] + 7.7 r[44] + 2.1 r[45] + 5.2 r[46] + 4.4 r[47]
   + 4.1 r[48] + 4.6 r[49] + 9.3 r[50] + 0.6 r[51] + 8.7 r[52] + 3.8 r[53]
   + 7.5 r[54] + 1.4 r[55] + 6.3 r[56] + 9.7 r[57] + 5.4 r[58] + 7.2 r[59]
   + 0.7 r[60] + 8.5 r[61] + 4.6 r[62] + 4.1 r[63] + 2.6 r[64] + 3 r[65]
   + 9.5 r[66] + 6.9 r[67] + 9.4 r[68] + 4 r[69] + 4 r[70] + 6.4 r[71]
   + 2.4 r[72] + 4.5 r[73] + 6.6 r[74] + 9.9 r[75] + 5.3 r[76] + 2.5 r[77]
   + 9.9 r[78] + 9.7 r[79] + 3.2 r[80] + 1.2 r[81] + 4.9 r[82] + 6.4 r[83]
   + 3.2 r[84] + 4.4 r[85] + 7.4 r[86] + 9.4 r[87] + 6.4 r[88] + 0.1 r[89]
   + 3.1 r[90] + 0.7 r[91] + 4.7 r[92] + 5 r[93] + 6.6 r[94] + 5.5 r[95]
   + 1.9 r[96] + 7.5 r[97] + 3.8 r[98] + 7 r[99] + 6.3 r[100] + 1.8 r[101]
   + 9.2 r[102] + 5.4 r[103] + 9.9 r[104] + 6.8 r[105] + 0.9 r[106]
   + 8.9 r[107] + 8.9 r[108] + 8.3 r[109] + 6.5 r[110] + 0.5 r[111]
   + 0.3 r[112] + 1.5 r[113] + 1.5 r[114] + 3.7 r[115] + 6.9 r[116]
   + 1.9 r[117] + 0.3 r[118] + 2.7 r[119] + 5.4 r[120] + 6.3 r[121]
   + 3.8 r[122] + 5.3 r[123] + 0.7 r[124] + 8.5 r[125] + 0.6 r[126]
   + 9 r[127] + 8.5 r[128] + 5.3 r[129] + 3.2 r[130] + 8.3 r[131]
   + 6.5 r[132] + 7 r[133] + 4.3 r[134] + 7.6 r[135] + 3.5 r[136]
   + 2.1 r[137] + 2.8 r[138] + 4.2 r[139] <= 664
 primal_lower: 3.173369864947085 x[0] + 0.1701977796195708 x[1]
   + 1.507461212839791 x[2] + 0.8062884068611408 x[3]
   + 3.016675279388817 x[4] + 0.6510729832506256 x[5]
   + 3.795633824644832 x[6] + 4.790191030273817 x[7]
   + 1.78205934981669 x[8] + 2.305148805200397 x[9]
   + 0.0705833034736866 x[10] + 0.6970385528030287 x[11]
   + 2.225003245141487 x[12] + 4.486540929421284 x[13]
   + 0.9586082521238154 x[14] + 2.433814838396221 x[15]
   + 1.127034657242772 x[16] + 2.216288424162324 x[17]
   + 3.611317866538269 x[18] + 2.128379781170249 x[19]
   + 4.797690919012289 x[20] + 0.7797934520218974 x[21]
   + 4.693472878671417 x[22] + 2.199190244961324 x[23]
   + 2.880527460317176 x[24] + 3.000175325806993 x[25]
   + 4.168421308463787 x[26] + 2.058277760239865 x[27]
   + 0.3977843869753201 x[28] + 0.9360723259959602 x[29]
   + 3.931690291632615 x[30] + 2.534432021520363 x[31]
   + 3.358768319954327 x[32] + 1.299671341138495 x[33]
   + 1.563609012237028 x[34] + 4.264639103145976 x[35]
   + 0.6819431657652003 x[36] + 3.968539310840738 x[37]
   + 4.64770803927467 x[38] + 2.594222166063612 x[39]
   + 1.017407960137842 x[40] + 4.04588236444055 x[41]
   + 1.613193002953303 x[42] + 1.423184621694641 x[43]
   + 0.0319337581359031 x[44] + 0.1046941940910847 x[45]
   + 3.41678831026459 x[46] + 0.9681265294987559 x[47]
   + 0.4727543039047231 x[48] + 1.461563417874191 x[49]
   + 4.391785208944182 x[50] + 2.234843366491494 x[51]
   + 0.6433086772521471 x[52] + 1.37430746269713 x[53]
   + 1.799703714699945 x[54] + 0.8135744221483697 x[55]
   + 3.926026125947292 x[56] + 4.163440041156576 x[57]
   + 4.619948739951658 x[58] + 3.300186644233447 x[59]
   + 0.8732841740036028 x[60] + 3.542471929747003 x[61]
   + 3.165265090460654 x[62] + 1.846934310853779 x[63]
   + 1.600262443790474 x[64] + 0.9141255927202843 x[65]
   + 1.193789685606917 x[66] + 1.328781797133753 x[67]
   + 1.298415266199011 x[68] + 0.4008687785747659 x[69]
   + 3.879328177802672 x[70] + 3.418534771728465 x[71]
   + 4.568414497822395 x[72] + 3.793917132731495 x[73]
   + 2.734328201984479 x[74] + 2.443859700721536 x[75]
   + 1.964487006664186 x[76] + 1.570152012093745 x[77]
   + 1.713633060835908 x[78] + 3.918850018896144 x[79]
   + 0.8396230439295282 x[80] + 2.094609987061123 x[81]
   + 4.748685658543362 x[82] + 2.130959022473968 x[83]
   + 3.394861698682803 x[84] + 4.233360141979714 x[85]
   + 0.8838265708316096 x[86] + 4.605030626107386 x[87]
   + 3.008153102343524 x[88] + 1.166273201278238 x[89]
   + 1.53734535574887 x[90] + 4.753143280193787 x[91]
   + 0.2729601456023136 x[92] + 1.460892315159913 x[93]
   + 0.4281984934678396 x[94] + 4.743890525426257 x[95]
   + 2.569496435431257 x[96] + 1.874076476869968 x[97]
   + 3.03594985239614 x[98] + 2.579904599006757 x[99]
   + 1.823178598411514 x[100] + 2.976262876353984 x[101]
   + 3.303554151627817 x[102] + 0.194091266294283 x[103]
   + 0.5062767979538461 x[104] + 3.269163314833702 x[105]
   + 2.160959716047439 x[106] + 1.554425603122482 x[107]
   + 3.019583280922104 x[108] + 3.426619361232545 x[109]
   + 3.707353790466075 x[110] + 2.539901703511342 x[111]
   + 4.612280274838704 x[112] + 0.9860532971611279 x[113]
   + 1.354428918901391 x[114] + 1.701848527784567 x[115]
   + 2.63246494088087 x[116] + 0.6293203443597425 x[117]
   + 3.49980316059188 x[118] + 2.245068777950245 x[119]
   + 3.295136485424345 x[120] + 3.718191224625941 x[121]
   + 4.207265075926481 x[122] + 4.728995617780417 x[123]
   + 4.790635753757329 x[124] + 4.01740279628939 x[125]
   + 4.714911933751298 x[126] + 3.193730647560796 x[127]
   + 1.781164864404372 x[128] + 4.29751256934065 x[129]
   + 2.977217918639481 x[130] + 1.787118339682051 x[131]
   + 3.413262466441377 x[132] + 3.621709506414835 x[133]
   + 2.595484446073932 x[134] + 0.9485642932204293 x[135]
   + 0.9163286150443294 x[136] + 2.169309872225994 x[137]
   + 3.031497936715308 x[138] + 4.833901659409849 x[139] + 70 u[0]
   + 86 u[1] + 88 u[2] + 33 u[3] + 26 u[4] + 44 u[5] + 51 u[6] + 78 u[7]
   + 55 u[8] + 24 u[9] + 10 u[10] + 25 u[11] + 34 u[12] + 78 u[13]
   + 51 u[14] + 75 u[15] + 87 u[16] + 82 u[17] + 91 u[18] + 44 u[19]
   + 71 u[20] + 42 u[21] + 10 u[22] + 41 u[23] + 99 u[24] + 62 u[25]
   + 60 u[26] + 86 u[27] + 32 u[28] + 45 u[29] + 24 u[30] + 50 u[31]
   + 78 u[32] + 67 u[33] + 70 u[34] + 27 u[35] + 30 u[36] + 83 u[37]
   + 18 u[38] + 13 u[39] + 25 u[40] + 28 u[41] + 64 u[42] + 72 u[43]
   + 69 u[44] + 45 u[45] + 60 u[46] + 32 u[47] + 21 u[48] + 66 u[49]
   + 45 u[50] + 38 u[51] + 59 u[52] + 82 u[53] + 75 u[54] + 62 u[55]
   + 23 u[56] + 93 u[57] + 26 u[58] + 44 u[59] + 35 u[60] + 73 u[61]
   + 34 u[62] + 77 u[63] + 22 u[64] + 50 u[65] + 7 u[66] + 81 u[67]
   + 86 u[68] + 36 u[69] + 16 u[70] + 80 u[71] + 92 u[72] + 77 u[73]
   + 42 u[74] + 7 u[75] + 89 u[76] + 25 u[77] + 23 u[78] + 13 u[79]
   + 100 u[80] + 36 u[81] + 17 u[82] + 8 u[83] + 68 u[84] + 56 u[85]
   + 30 u[86] + 14 u[87] + 68 u[88] + 97 u[89] + 95 u[90] + 39 u[91]
   + 83 u[92] + 62 u[93] + 30 u[94] + 79 u[95] + 15 u[96] + 95 u[97]
   + 82 u[98] + 58 u[99] + 43 u[100] + 98 u[101] + 88 u[102] + 98 u[103]
   + 15 u[104] + 32 u[105] + 33 u[106] + 41 u[107] + 41 u[108] + 39 u[109]
   + 25 u[110] + 85 u[111] + 3 u[112] + 39 u[113] + 55 u[114] + 49 u[115]
   + 41 u[116] + 59 u[117] + 67 u[118] + 19 u[119] + 66 u[120] + 59 u[121]
   + 58 u[122] + 53 u[123] + 3 u[124] + 65 u[125] + 62 u[126] + 70 u[127]
   + 53 u[128] + 61 u[129] + 48 u[130] + 75 u[131] + 61 u[132] + 10 u[133]
   + 47 u[134] + 24 u[135] + 15 u[136] + 21 u[137] + 64 u[138] + 30 u[139]
   <= 5422
 mccormick1[0]: - u[0] + r[0] <= 0
 mccormick1[1]: - u[1] + r[1] <= 0
 mccormick1[2]: - u[2] + r[2] <= 0
 mccormick1[3]: - u[3] + r[3] <= 0
 mccormick1[4]: - u[4] + r[4] <= 0
 mccormick1[5]: - u[5] + r[5] <= 0
 mccormick1[6]: - u[6] + r[6] <= 0
 mccormick1[7]: - u[7] + r[7] <= 0
 mccormick1[8]: - u[8] + r[8] <= 0
 mccormick1[9]: - u[9] + r[9] <= 0
 mccormick1[10]: - u[10] + r[10] <= 0
 mccormick1[11]: - u[11] + r[11] <= 0
 mccormick1[12]: - u[12] + r[12] <= 0
 mccormick1[13]: - u[13] + r[13] <= 0
 mccormick1[14]: - u[14] + r[14] <= 0
 mccormick1[15]: - u[15] + r[15] <= 0
 mccormick1[16]: - u[16] + r[16] <= 0
 mccormick1[17]: - u[17] + r[17] <= 0
 mccormick1[18]: - u[18] + r[18] <= 0
 mccormick1[19]: - u[19] + r[19] <= 0
 mccormick1[20]: - u[20] + r[20] <= 0
 mccormick1[21]: - u[21] + r[21] <= 0
 mccormick1[22]: - u[22] + r[22] <= 0
 mccormick1[23]: - u[23] + r[23] <= 0
 mccormick1[24]: - u[24] + r[24] <= 0
 mccormick1[25]: - u[25] + r[25] <= 0
 mccormick1[26]: - u[26] + r[26] <= 0
 mccormick1[27]: - u[27] + r[27] <= 0
 mccormick1[28]: - u[28] + r[28] <= 0
 mccormick1[29]: - u[29] + r[29] <= 0
 mccormick1[30]: - u[30] + r[30] <= 0
 mccormick1[31]: - u[31] + r[31] <= 0
 mccormick1[32]: - u[32] + r[32] <= 0
 mccormick1[33]: - u[33] + r[33] <= 0
 mccormick1[34]: - u[34] + r[34] <= 0
 mccormick1[35]: - u[35] + r[35] <= 0
 mccormick1[36]: - u[36] + r[36] <= 0
 mccormick1[37]: - u[37] + r[37] <= 0
 mccormick1[38]: - u[38] + r[38] <= 0
 mccormick1[39]: - u[39] + r[39] <= 0
 mccormick1[40]: - u[40] + r[40] <= 0
 mccormick1[41]: - u[41] + r[41] <= 0
 mccormick1[42]: - u[42] + r[42] <= 0
 mccormick1[43]: - u[43] + r[43] <= 0
 mccormick1[44]: - u[44] + r[44] <= 0
 mccormick1[45]: - u[45] + r[45] <= 0
 mccormick1[46]: - u[46] + r[46] <= 0
 mccormick1[47]: - u[47] + r[47] <= 0
 mccormick1[48]: - u[48] + r[48] <= 0
 mccormick1[49]: - u[49] + r[49] <= 0
 mccormick1[50]: - u[50] + r[50] <= 0
 mccormick1[51]: - u[51] + r[51] <= 0
 mccormick1[52]: - u[52] + r[52] <= 0
 mccormick1[53]: - u[53] + r[53] <= 0
 mccormick1[54]: - u[54] + r[54] <= 0
 mccormick1[55]: - u[55] + r[55] <= 0
 mccormick1[56]: - u[56] + r[56] <= 0
 mccormick1[57]: - u[57] + r[57] <= 0
 mccormick1[58]: - u[58] + r[58] <= 0
 mccormick1[59]: - u[59] + r[59] <= 0
 mccormick1[60]: - u[60] + r[60] <= 0
 mccormick1[61]: - u[61] + r[61] <= 0
 mccormick1[62]: - u[62] + r[62] <= 0
 mccormick1[63]: - u[63] + r[63] <= 0
 mccormick1[64]: - u[64] + r[64] <= 0
 mccormick1[65]: - u[65] + r[65] <= 0
 mccormick1[66]: - u[66] + r[66] <= 0
 mccormick1[67]: - u[67] + r[67] <= 0
 mccormick1[68]: - u[68] + r[68] <= 0
 mccormick1[69]: - u[69] + r[69] <= 0
 mccormick1[70]: - u[70] + r[70] <= 0
 mccormick1[71]: - u[71] + r[71] <= 0
 mccormick1[72]: - u[72] + r[72] <= 0
 mccormick1[73]: - u[73] + r[73] <= 0
 mccormick1[74]: - u[74] + r[74] <= 0
 mccormick1[75]: - u[75] + r[75] <= 0
 mccormick1[76]: - u[76] + r[76] <= 0
 mccormick1[77]: - u[77] + r[77] <= 0
 mccormick1[78]: - u[78] + r[78] <= 0
 mccormick1[79]: - u[79] + r[79] <= 0
 mccormick1[80]: - u[80] + r[80] <= 0
 mccormick1[81]: - u[81] + r[81] <= 0
 mccormick1[82]: - u[82] + r[82] <= 0
 mccormick1[83]: - u[83] + r[83] <= 0
 mccormick1[84]: - u[84] + r[84] <= 0
 mccormick1[85]: - u[85] + r[85] <= 0
 mccormick1[86]: - u[86] + r[86] <= 0
 mccormick1[87]: - u[87] + r[87] <= 0
 mccormick1[88]: - u[88] + r[88] <= 0
 mccormick1[89]: - u[89] + r[89] <= 0
 mccormick1[90]: - u[90] + r[90] <= 0
 mccormick1[91]: - u[91] + r[91] <= 0
 mccormick1[92]: - u[92] + r[92] <= 0
 mccormick1[93]: - u[93] + r[93] <= 0
 mccormick1[94]: - u[94] + r[94] <= 0
 mccormick1[95]: - u[95] + r[95] <= 0
 mccormick1[96]: - u[96] + r[96] <= 0
 mccormick1[97]: - u[97] + r[97] <= 0
 mccormick1[98]: - u[98] + r[98] <= 0
 mccormick1[99]: - u[99] + r[99] <= 0
 mccormick1[100]: - u[100] + r[100] <= 0
 mccormick1[101]: - u[101] + r[101] <= 0
 mccormick1[102]: - u[102] + r[102] <= 0
 mccormick1[103]: - u[103] + r[103] <= 0
 mccormick1[104]: - u[104] + r[104] <= 0
 mccormick1[105]: - u[105] + r[105] <= 0
 mccormick1[106]: - u[106] + r[106] <= 0
 mccormick1[107]: - u[107] + r[107] <= 0
 mccormick1[108]: - u[108] + r[108] <= 0
 mccormick1[109]: - u[109] + r[109] <= 0
 mccormick1[110]: - u[110] + r[110] <= 0
 mccormick1[111]: - u[111] + r[111] <= 0
 mccormick1[112]: - u[112] + r[112] <= 0
 mccormick1[113]: - u[113] + r[113] <= 0
 mccormick1[114]: - u[114] + r[114] <= 0
 mccormick1[115]: - u[115] + r[115] <= 0
 mccormick1[116]: - u[116] + r[116] <= 0
 mccormick1[117]: - u[117] + r[117] <= 0
 mccormick1[118]: - u[118] + r[118] <= 0
 mccormick1[119]: - u[119] + r[119] <= 0
 mccormick1[120]: - u[120] + r[120] <= 0
 mccormick1[121]: - u[121] + r[121] <= 0
 mccormick1[122]: - u[122] + r[122] <= 0
 mccormick1[123]: - u[123] + r[123] <= 0
 mccormick1[124]: - u[124] + r[124] <= 0
 mccormick1[125]: - u[125] + r[125] <= 0
 mccormick1[126]: - u[126] + r[126] <= 0
 mccormick1[127]: - u[127] + r[127] <= 0
 mccormick1[128]: - u[128] + r[128] <= 0
 mccormick1[129]: - u[129] + r[129] <= 0
 mccormick1[130]: - u[130] + r[130] <= 0
 mccormick1[131]: - u[131] + r[131] <= 0
 mccormick1[132]: - u[132] + r[132] <= 0
 mccormick1[133]: - u[133] + r[133] <= 0
 mccormick1[134]: - u[134] + r[134] <= 0
 mccormick1[135]: - u[135] + r[135] <= 0
 mccormick1[136]: - u[136] + r[136] <= 0
 mccormick1[137]: - u[137] + r[137] <= 0
 mccormick1[138]: - u[138] + r[138] <= 0
 mccormick1[139]: - u[139] + r[139] <= 0
 mccormick2[0]: - x[0] + r[0] <= 0
 mccormick2[1]: - x[1] + r[1] <= 0
 mccormick2[2]: - x[2] + r[2] <= 0
 mccormick2[3]: - x[3] + r[3] <= 0
 mccormick2[4]: - x[4] + r[4] <= 0
 mccormick2[5]: - x[5] + r[5] <= 0
 mccormick2[6]: - x[6] + r[6] <= 0
 mccormick2[7]: - x[7] + r[7] <= 0
 mccormick2[8]: - x[8] + r[8] <= 0
 mccormick2[9]: - x[9] + r[9] <= 0
 mccormick2[10]: - x[10] + r[10] <= 0
 mccormick2[11]: - x[11] + r[11] <= 0
 mccormick2[12]: - x[12] + r[12] <= 0
 mccormick2[13]: - x[13] + r[13] <= 0
 mccormick2[14]: - x[14] + r[14] <= 0
 mccormick2[15]: - x[15] + r[15] <= 0
 mccormick2[16]: - x[16] + r[16] <= 0
 mccormick2[17]: - x[17] + r[17] <= 0
 mccormick2[18]: - x[18] + r[18] <= 0
 mccormick2[19]: - x[19] + r[19] <= 0
 mccormick2[20]: - x[20] + r[20] <= 0
 mccormick2[21]: - x[21] + r[21] <= 0
 mccormick2[22]: - x[22] + r[22] <= 0
 mccormick2[23]: - x[23] + r[23] <= 0
 mccormick2[24]: - x[24] + r[24] <= 0
 mccormick2[25]: - x[25] + r[25] <= 0
 mccormick2[26]: - x[26] + r[26] <= 0
 mccormick2[27]: - x[27] + r[27] <= 0
 mccormick2[28]: - x[28] + r[28] <= 0
 mccormick2[29]: - x[29] + r[29] <= 0
 mccormick2[30]: - x[30] + r[30] <= 0
 mccormick2[31]: - x[31] + r[31] <= 0
 mccormick2[32]: - x[32] + r[32] <= 0
 mccormick2[33]: - x[33] + r[33] <= 0
 mccormick2[34]: - x[34] + r[34] <= 0
 mccormick2[35]: - x[35] + r[35] <= 0
 mccormick2[36]: - x[36] + r[36] <= 0
 mccormick2[37]: - x[37] + r[37] <= 0
 mccormick2[38]: - x[38] + r[38] <= 0
 mccormick2[39]: - x[39] + r[39] <= 0
 mccormick2[40]: - x[40] + r[40] <= 0
 mccormick2[41]: - x[41] + r[41] <= 0
 mccormick2[42]: - x[42] + r[42] <= 0
 mccormick2[43]: - x[43] + r[43] <= 0
 mccormick2[44]: - x[44] + r[44] <= 0
 mccormick2[45]: - x[45] + r[45] <= 0
 mccormick2[46]: - x[46] + r[46] <= 0
 mccormick2[47]: - x[47] + r[47] <= 0
 mccormick2[48]: - x[48] + r[48] <= 0
 mccormick2[49]: - x[49] + r[49] <= 0
 mccormick2[50]: - x[50] + r[50] <= 0
 mccormick2[51]: - x[51] + r[51] <= 0
 mccormick2[52]: - x[52] + r[52] <= 0
 mccormick2[53]: - x[53] + r[53] <= 0
 mccormick2[54]: - x[54] + r[54] <= 0
 mccormick2[55]: - x[55] + r[55] <= 0
 mccormick2[56]: - x[56] + r[56] <= 0
 mccormick2[57]: - x[57] + r[57] <= 0
 mccormick2[58]: - x[58] + r[58] <= 0
 mccormick2[59]: - x[59] + r[59] <= 0
 mccormick2[60]: - x[60] + r[60] <= 0
 mccormick2[61]: - x[61] + r[61] <= 0
 mccormick2[62]: - x[62] + r[62] <= 0
 mccormick2[63]: - x[63] + r[63] <= 0
 mccormick2[64]: - x[64] + r[64] <= 0
 mccormick2[65]: - x[65] + r[65] <= 0
 mccormick2[66]: - x[66] + r[66] <= 0
 mccormick2[67]: - x[67] + r[67] <= 0
 mccormick2[68]: - x[68] + r[68] <= 0
 mccormick2[69]: - x[69] + r[69] <= 0
 mccormick2[70]: - x[70] + r[70] <= 0
 mccormick2[71]: - x[71] + r[71] <= 0
 mccormick2[72]: - x[72] + r[72] <= 0
 mccormick2[73]: - x[73] + r[73] <= 0
 mccormick2[74]: - x[74] + r[74] <= 0
 mccormick2[75]: - x[75] + r[75] <= 0
 mccormick2[76]: - x[76] + r[76] <= 0
 mccormick2[77]: - x[77] + r[77] <= 0
 mccormick2[78]: - x[78] + r[78] <= 0
 mccormick2[79]: - x[79] + r[79] <= 0
 mccormick2[80]: - x[80] + r[80] <= 0
 mccormick2[81]: - x[81] + r[81] <= 0
 mccormick2[82]: - x[82] + r[82] <= 0
 mccormick2[83]: - x[83] + r[83] <= 0
 mccormick2[84]: - x[84] + r[84] <= 0
 mccormick2[85]: - x[85] + r[85] <= 0
 mccormick2[86]: - x[86] + r[86] <= 0
 mccormick2[87]: - x[87] + r[87] <= 0
 mccormick2[88]: - x[88] + r[88] <= 0
 mccormick2[89]: - x[89] + r[89] <= 0
 mccormick2[90]: - x[90] + r[90] <= 0
 mccormick2[91]: - x[91] + r[91] <= 0
 mccormick2[92]: - x[92] + r[92] <= 0
 mccormick2[93]: - x[93] + r[93] <= 0
 mccormick2[94]: - x[94] + r[94] <= 0
 mccormick2[95]: - x[95] + r[95] <= 0
 mccormick2[96]: - x[96] + r[96] <= 0
 mccormick2[97]: - x[97] + r[97] <= 0
 mccormick2[98]: - x[98] + r[98] <= 0
 mccormick2[99]: - x[99] + r[99] <= 0
 mccormick2[100]: - x[100] + r[100] <= 0
 mccormick2[101]: - x[101] + r[101] <= 0
 mccormick2[102]: - x[102] + r[102] <= 0
 mccormick2[103]: - x[103] + r[103] <= 0
 mccormick2[104]: - x[104] + r[104] <= 0
 mccormick2[105]: - x[105] + r[105] <= 0
 mccormick2[106]: - x[106] + r[106] <= 0
 mccormick2[107]: - x[107] + r[107] <= 0
 mccormick2[108]: - x[108] + r[108] <= 0
 mccormick2[109]: - x[109] + r[109] <= 0
 mccormick2[110]: - x[110] + r[110] <= 0
 mccormick2[111]: - x[111] + r[111] <= 0
 mccormick2[112]: - x[112] + r[112] <= 0
 mccormick2[113]: - x[113] + r[113] <= 0
 mccormick2[114]: - x[114] + r[114] <= 0
 mccormick2[115]: - x[115] + r[115] <= 0
 mccormick2[116]: - x[116] + r[116] <= 0
 mccormick2[117]: - x[117] + r[117] <= 0
 mccormick2[118]: - x[118] + r[118] <= 0
 mccormick2[119]: - x[119] + r[119] <= 0
 mccormick2[120]: - x[120] + r[120] <= 0
 mccormick2[121]: - x[121] + r[121] <= 0
 mccormick2[122]: - x[122] + r[122] <= 0
 mccormick2[123]: - x[123] + r[123] <= 0
 mccormick2[124]: - x[124] + r[124] <= 0
 mccormick2[125]: - x[125] + r[125] <= 0
 mccormick2[126]: - x[126] + r[126] <= 0
 mccormick2[127]: - x[127] + r[127] <= 0
 mccormick2[128]: - x[128] + r[128] <= 0
 mccormick2[129]: - x[129] + r[129] <= 0
 mccormick2[130]: - x[130] + r[130] <= 0
 mccormick2[131]: - x[131] + r[131] <= 0
 mccormick2[132]: - x[132] + r[132] <= 0
 mccormick2[133]: - x[133] + r[133] <= 0
 mccormick2[134]: - x[134] + r[134] <= 0
 mccormick2[135]: - x[135] + r[135] <= 0
 mccormick2[136]: - x[136] + r[136] <= 0
 mccormick2[137]: - x[137] + r[137] <= 0
 mccormick2[138]: - x[138] + r[138] <= 0
 mccormick2[139]: - x[139] + r[139] <= 0
 mccormick3[0]: x[0] + u[0] - r[0] <= 1
 mccormick3[1]: x[1] + u[1] - r[1] <= 1
 mccormick3[2]: x[2] + u[2] - r[2] <= 1
 mccormick3[3]: x[3] + u[3] - r[3] <= 1
 mccormick3[4]: x[4] + u[4] - r[4] <= 1
 mccormick3[5]: x[5] + u[5] - r[5] <= 1
 mccormick3[6]: x[6] + u[6] - r[6] <= 1
 mccormick3[7]: x[7] + u[7] - r[7] <= 1
 mccormick3[8]: x[8] + u[8] - r[8] <= 1
 mccormick3[9]: x[9] + u[9] - r[9] <= 1
 mccormick3[10]: x[10] + u[10] - r[10] <= 1
 mccormick3[11]: x[11] + u[11] - r[11] <= 1
 mccormick3[12]: x[12] + u[12] - r[12] <= 1
 mccormick3[13]: x[13] + u[13] - r[13] <= 1
 mccormick3[14]: x[14] + u[14] - r[14] <= 1
 mccormick3[15]: x[15] + u[15] - r[15] <= 1
 mccormick3[16]: x[16] + u[16] - r[16] <= 1
 mccormick3[17]: x[17] + u[17] - r[17] <= 1
 mccormick3[18]: x[18] + u[18] - r[18] <= 1
 mccormick3[19]: x[19] + u[19] - r[19] <= 1
 mccormick3[20]: x[20] + u[20] - r[20] <= 1
 mccormick3[21]: x[21] + u[21] - r[21] <= 1
 mccormick3[22]: x[22] + u[22] - r[22] <= 1
 mccormick3[23]: x[23] + u[23] - r[23] <= 1
 mccormick3[24]: x[24] + u[24] - r[24] <= 1
 mccormick3[25]: x[25] + u[25] - r[25] <= 1
 mccormick3[26]: x[26] + u[26] - r[26] <= 1
 mccormick3[27]: x[27] + u[27] - r[27] <= 1
 mccormick3[28]: x[28] + u[28] - r[28] <= 1
 mccormick3[29]: x[29] + u[29] - r[29] <= 1
 mccormick3[30]: x[30] + u[30] - r[30] <= 1
 mccormick3[31]: x[31] + u[31] - r[31] <= 1
 mccormick3[32]: x[32] + u[32] - r[32] <= 1
 mccormick3[33]: x[33] + u[33] - r[33] <= 1
 mccormick3[34]: x[34] + u[34] - r[34] <= 1
 mccormick3[35]: x[35] + u[35] - r[35] <= 1
 mccormick3[36]: x[36] + u[36] - r[36] <= 1
 mccormick3[37]: x[37] + u[37] - r[37] <= 1
 mccormick3[38]: x[38] + u[38] - r[38] <= 1
 mccormick3[39]: x[39] + u[39] - r[39] <= 1
 mccormick3[40]: x[40] + u[40] - r[40] <= 1
 mccormick3[41]: x[41] + u[41] - r[41] <= 1
 mccormick3[42]: x[42] + u[42] - r[42] <= 1
 mccormick3[43]: x[43] + u[43] - r[43] <= 1
 mccormick3[44]: x[44] + u[44] - r[44] <= 1
 mccormick3[45]: x[45] + u[45] - r[45] <= 1
 mccormick3[46]: x[46] + u[46] - r[46] <= 1
 mccormick3[47]: x[47] + u[47] - r[47] <= 1
 mccormick3[48]: x[48] + u[48] - r[48] <= 1
 mccormick3[49]: x[49] + u[49] - r[49] <= 1
 mccormick3[50]: x[50] + u[50] - r[50] <= 1
 mccormick3[51]: x[51] + u[51] - r[51] <= 1
 mccormick3[52]: x[52] + u[52] - r[52] <= 1
 mccormick3[53]: x[53] + u[53] - r[53] <= 1
 mccormick3[54]: x[54] + u[54] - r[54] <= 1
 mccormick3[55]: x[55] + u[55] - r[55] <= 1
 mccormick3[56]: x[56] + u[56] - r[56] <= 1
 mccormick3[57]: x[57] + u[57] - r[57] <= 1
 mccormick3[58]: x[58] + u[58] - r[58] <= 1
 mccormick3[59]: x[59] + u[59] - r[59] <= 1
 mccormick3[60]: x[60] + u[60] - r[60] <= 1
 mccormick3[61]: x[61] + u[61] - r[61] <= 1
 mccormick3[62]: x[62] + u[62] - r[62] <= 1
 mccormick3[63]: x[63] + u[63] - r[63] <= 1
 mccormick3[64]: x[64] + u[64] - r[64] <= 1
 mccormick3[65]: x[65] + u[65] - r[65] <= 1
 mccormick3[66]: x[66] + u[66] - r[66] <= 1
 mccormick3[67]: x[67] + u[67] - r[67] <= 1
 mccormick3[68]: x[68] + u[68] - r[68] <= 1
 mccormick3[69]: x[69] + u[69] - r[69] <= 1
 mccormick3[70]: x[70] + u[70] - r[70] <= 1
 mccormick3[71]: x[71] + u[71] - r[71] <= 1
 mccormick3[72]: x[72] + u[72] - r[72] <= 1
 mccormick3[73]: x[73] + u[73] - r[73] <= 1
 mccormick3[74]: x[74] + u[74] - r[74] <= 1
 mccormick3[75]: x[75] + u[75] - r[75] <= 1
 mccormick3[76]: x[76] + u[76] - r[76] <= 1
 mccormick3[77]: x[77] + u[77] - r[77] <= 1
 mccormick3[78]: x[78] + u[78] - r[78] <= 1
 mccormick3[79]: x[79] + u[79] - r[79] <= 1
 mccormick3[80]: x[80] + u[80] - r[80] <= 1
 mccormick3[81]: x[81] + u[81] - r[81] <= 1
 mccormick3[82]: x[82] + u[82] - r[82] <= 1
 mccormick3[83]: x[83] + u[83] - r[83] <= 1
 mccormick3[84]: x[84] + u[84] - r[84] <= 1
 mccormick3[85]: x[85] + u[85] - r[85] <= 1
 mccormick3[86]: x[86] + u[86] - r[86] <= 1
 mccormick3[87]: x[87] + u[87] - r[87] <= 1
 mccormick3[88]: x[88] + u[88] - r[88] <= 1
 mccormick3[89]: x[89] + u[89] - r[89] <= 1
 mccormick3[90]: x[90] + u[90] - r[90] <= 1
 mccormick3[91]: x[91] + u[91] - r[91] <= 1
 mccormick3[92]: x[92] + u[92] - r[92] <= 1
 mccormick3[93]: x[93] + u[93] - r[93] <= 1
 mccormick3[94]: x[94] + u[94] - r[94] <= 1
 mccormick3[95]: x[95] + u[95] - r[95] <= 1
 mccormick3[96]: x[96] + u[96] - r[96] <= 1
 mccormick3[97]: x[97] + u[97] - r[97] <= 1
 mccormick3[98]: x[98] + u[98] - r[98] <= 1
 mccormick3[99]: x[99] + u[99] - r[99] <= 1
 mccormick3[100]: x[100] + u[100] - r[100] <= 1
 mccormick3[101]: x[101] + u[101] - r[101] <= 1
 mccormick3[102]: x[102] + u[102] - r[102] <= 1
 mccormick3[103]: x[103] + u[103] - r[103] <= 1
 mccormick3[104]: x[104] + u[104] - r[104] <= 1
 mccormick3[105]: x[105] + u[105] - r[105] <= 1
 mccormick3[106]: x[106] + u[106] - r[106] <= 1
 mccormick3[107]: x[107] + u[107] - r[107] <= 1
 mccormick3[108]: x[108] + u[108] - r[108] <= 1
 mccormick3[109]: x[109] + u[109] - r[109] <= 1
 mccormick3[110]: x[110] + u[110] - r[110] <= 1
 mccormick3[111]: x[111] + u[111] - r[111] <= 1
 mccormick3[112]: x[112] + u[112] - r[112] <= 1
 mccormick3[113]: x[113] + u[113] - r[113] <= 1
 mccormick3[114]: x[114] + u[114] - r[114] <= 1
 mccormick3[115]: x[115] + u[115] - r[115] <= 1
 mccormick3[116]: x[116] + u[116] - r[116] <= 1
 mccormick3[117]: x[117] + u[117] - r[117] <= 1
 mccormick3[118]: x[118] + u[118] - r[118] <= 1
 mccormick3[119]: x[119] + u[119] - r[119] <= 1
 mccormick3[120]: x[120] + u[120] - r[120] <= 1
 mccormick3[121]: x[121] + u[121] - r[121] <= 1
 mccormick3[122]: x[122] + u[122] - r[122] <= 1
 mccormick3[123]: x[123] + u[123] - r[123] <= 1
 mccormick3[124]: x[124] + u[124] - r[124] <= 1
 mccormick3[125]: x[125] + u[125] - r[125] <= 1
 mccormick3[126]: x[126] + u[126] - r[126] <= 1
 mccormick3[127]: x[127] + u[127] - r[127] <= 1
 mccormick3[128]: x[128] + u[128] - r[128] <= 1
 mccormick3[129]: x[129] + u[129] - r[129] <= 1
 mccormick3[130]: x[130] + u[130] - r[130] <= 1
 mccormick3[131]: x[131] + u[131] - r[131] <= 1
 mccormick3[132]: x[132] + u[132] - r[132] <= 1
 mccormick3[133]: x[133] + u[133] - r[133] <= 1
 mccormick3[134]: x[134] + u[134] - r[134] <= 1
 mccormick3[135]: x[135] + u[135] - r[135] <= 1
 mccormick3[136]: x[136] + u[136] - r[136] <= 1
 mccormick3[137]: x[137] + u[137] - r[137] <= 1
 mccormick3[138]: x[138] + u[138] - r[138] <= 1
 mccormick3[139]: x[139] + u[139] - r[139] <= 1
Bounds
Binaries
 x[0] x[1] x[2] x[3] x[4] x[5] x[6] x[7] x[8] x[9] x[10] x[11] x[12] x[13]
 x[14] x[15] x[16] x[17] x[18] x[19] x[20] x[21] x[22] x[23] x[24] x[25]
 x[26] x[27] x[28] x[29] x[30] x[31] x[32] x[33] x[34] x[35] x[36] x[37]
 x[38] x[39] x[40] x[41] x[42] x[43] x[44] x[45] x[46] x[47] x[48] x[49]
 x[50] x[51] x[52] x[53] x[54] x[55] x[56] x[57] x[58] x[59] x[60] x[61]
 x[62] x[63] x[64] x[65] x[66] x[67] x[68] x[69] x[70] x[71] x[72] x[73]
 x[74] x[75] x[76] x[77] x[78] x[79] x[80] x[81] x[82] x[83] x[84] x[85]
 x[86] x[87] x[88] x[89] x[90] x[91] x[92] x[93] x[94] x[95] x[96] x[97]
 x[98] x[99] x[100] x[101] x[102] x[103] x[104] x[105] x[106] x[107] x[108]
 x[109] x[110] x[111] x[112] x[113] x[114] x[115] x[116] x[117] x[118]
 x[119] x[120] x[121] x[122] x[123] x[124] x[125] x[126] x[127] x[128]
 x[129] x[130] x[131] x[132] x[133] x[134] x[135] x[136] x[137] x[138]
 x[139] u[0] u[1] u[2] u[3] u[4] u[5] u[6] u[7] u[8] u[9] u[10] u[11] u[12]
 u[13] u[14] u[15] u[16] u[17] u[18] u[19] u[20] u[21] u[22] u[23] u[24]
 u[25] u[26] u[27] u[28] u[29] u[30] u[31] u[32] u[33] u[34] u[35] u[36]
 u[37] u[38] u[39] u[40] u[41] u[42] u[43] u[44] u[45] u[46] u[47] u[48]
 u[49] u[50] u[51] u[52] u[53] u[54] u[55] u[56] u[57] u[58] u[59] u[60]
 u[61] u[62] u[63] u[64] u[65] u[66] u[67] u[68] u[69] u[70] u[71] u[72]
 u[73] u[74] u[75] u[76] u[77] u[78] u[79] u[80] u[81] u[82] u[83] u[84]
 u[85] u[86] u[87] u[88] u[89] u[90] u[91] u[92] u[93] u[94] u[95] u[96]
 u[97] u[98] u[99] u[100] u[101] u[102] u[103] u[104] u[105] u[106] u[107]
 u[108] u[109] u[110] u[111] u[112] u[113] u[114] u[115] u[116] u[117]
 u[118] u[119] u[120] u[121] u[122] u[123] u[124] u[125] u[126] u[127]
 u[128] u[129] u[130] u[131] u[132] u[133] u[134] u[135] u[136] u[137]
 u[138] u[139] r[0] r[1] r[2] r[3] r[4] r[5] r[6] r[7] r[8] r[9] r[10]
 r[11] r[12] r[13] r[14] r[15] r[16] r[17] r[18] r[19] r[20] r[21] r[22]
 r[23] r[24] r[25] r[26] r[27] r[28] r[29] r[30] r[31] r[32] r[33] r[34]
 r[35] r[36] r[37] r[38] r[39] r[40] r[41] r[42] r[43] r[44] r[45] r[46]
 r[47] r[48] r[49] r[50] r[51] r[52] r[53] r[54] r[55] r[56] r[57] r[58]
 r[59] r[60] r[61] r[62] r[63] r[64] r[65] r[66] r[67] r[68] r[69] r[70]
 r[71] r[72] r[73] r[74] r[75] r[76] r[77] r[78] r[79] r[80] r[81] r[82]
 r[83] r[84] r[85] r[86] r[87] r[88] r[89] r[90] r[91] r[92] r[93] r[94]
 r[95] r[96] r[97] r[98] r[99] r[100] r[101] r[102] r[103] r[104] r[105]
 r[106] r[107] r[108] r[109] r[110] r[111] r[112] r[113] r[114] r[115]
 r[116] r[117] r[118] r[119] r[120] r[121] r[122] r[123] r[124] r[125]
 r[126] r[127] r[128] r[129] r[130] r[131] r[132] r[133] r[134] r[135]
 r[136] r[137] r[138] r[139]
End
